(set-logic HORN)
(set-info :source |
    Benchmark: C_VC
    Output by Princess (http://www.philipp.ruemmer.org/princess.shtml)
|)
(set-info :status unsat)
(declare-fun inv_main2 () Bool)
(declare-fun inv_main5 (Int Int Int) Bool)
(declare-fun inv_main6 (Int Int Int) Bool)
(assert inv_main2)
(assert (forall ((var0 Int) (var1 Int) (var2 Int)) (or (not (and (inv_main6 var2 var1 var0) (not (<= 0 (+ var1 (* (- 1) var2)))))) (inv_main5 var2 var1 var0))))
(assert (forall ((var0 Int) (var1 Int) (var2 Int)) (or (not (and (inv_main6 var2 var1 var0) (and (= var2 4) (<= 0 (+ var1 (* (- 1) var2)))))) (inv_main6 (+ var2 1) var1 (- 10)))))
(assert (forall ((var0 Int) (var1 Int) (var2 Int)) (or (not (and (inv_main6 var2 var1 var0) (and (not (= var2 4)) (<= 0 (+ var1 (* (- 1) var2)))))) (inv_main6 (+ var2 1) var1 (+ var0 2)))))
(assert (forall ((var0 Int)) (or (not (and inv_main2 (<= 0 var0))) (inv_main6 1 var0 0))))
(assert (forall ((var0 Int) (var1 Int) (var2 Int)) (not (and (inv_main5 var2 var1 var0) (and (not (= var0 (* 2 var1))) (not (= var0 0)))))))
(check-sat)
